************************************************************************
file with basedata            : mm48_.bas
initial value random generator: 786043806
************************************************************************
projects                      :  1
jobs (incl. supersource/sink ):  12
horizon                       :  79
RESOURCES
  - renewable                 :  2   R
  - nonrenewable              :  2   N
  - doubly constrained        :  0   D
************************************************************************
PROJECT INFORMATION:
pronr.  #jobs rel.date duedate tardcost  MPM-Time
    1     10      0       11        2       11
************************************************************************
PRECEDENCE RELATIONS:
jobnr.    #modes  #successors   successors
   1        1          3           2   3   4
   2        3          3           5  10  11
   3        3          1           6
   4        3          1           7
   5        3          1           8
   6        3          3           8  10  11
   7        3          2           9  10
   8        3          1           9
   9        3          1          12
  10        3          1          12
  11        3          1          12
  12        1          0        
************************************************************************
REQUESTS/DURATIONS:
jobnr. mode duration  R 1  R 2  N 1  N 2
------------------------------------------------------------------------
  1      1     0       0    0    0    0
  2      1     3       8    4    6    7
         2     4       6    4    5    6
         3     9       4    4    2    3
  3      1     4       4    5    8    7
         2     4       5    5    8    6
         3    10       4    4    7    3
  4      1     1      10    5   10    7
         2     3      10    5    9    6
         3     6      10    4    6    4
  5      1     4       8    7    6    6
         2     7       8    7    6    4
         3     8       7    5    6    3
  6      1     2       8    8    6    8
         2     6       7    6    6    7
         3     9       7    6    4    3
  7      1     6       2    5    9    6
         2     8       2    2    8    4
         3    10       1    1    6    3
  8      1     1       6    9    4    5
         2     1       5    7    4    9
         3     1       4    9    4    7
  9      1     3       9    8    9    7
         2     4       9    8    9    5
         3     8       7    8    9    3
 10      1     3       8    9    8    9
         2     6       7    9    4    9
         3     9       4    7    3    9
 11      1     1       4    4    6    5
         2     2       4    4    5    5
         3     9       3    4    4    4
 12      1     0       0    0    0    0
************************************************************************
RESOURCEAVAILABILITIES:
  R 1  R 2  N 1  N 2
   17   14   72   71
************************************************************************
MAXIMAL LAGS:
from  to  type  delay
    1   12   ES      0
    1    2   ES      0
    2   12   ES      0
    1    3   ES      0
    3   12   ES      0
    1    4   ES      0
    4   12   ES      0
    1    5   ES      0
    5   12   ES      0
    1    6   ES      0
    6   12   ES      0
    1    7   ES      0
    7   12   ES      0
    1    8   ES      0
    8   12   ES      0
    1    9   ES      0
    9   12   ES      0
    1   10   ES      0
   10   12   ES      0
    1   11   ES      0
   11   12   ES      0
    1   12   ES      0
    2    5   SS     -1
    2    5   SE     -4
    2    5   ES      4
    2    5   EE    -12
    2   10   SS      7
    2   10   SE     -4
    2   10   ES    -11
    2   10   EE      8
    2   11   SS     -4
    2   11   SE      8
    2   11   ES      3
    2   11   EE      0
    3    6   SS    -11
    3    6   SE     10
    3    6   ES     10
    3    6   EE     -4
    4    7   SS     -4
    4    7   SE      8
    4    7   ES    -11
    4    7   EE      6
    5    8   SS    -12
    5    8   SE     10
    5    8   ES      3
    5    8   EE      7
    6    8   SS      8
    6    8   SE      2
    6    8   ES      3
    6    8   EE     -7
    6   10   SS      3
    6   10   SE     11
    6   10   ES      8
    6   10   EE     12
    6   11   SS      5
    6   11   SE     -9
    6   11   ES    -11
    6   11   EE     -1
    7    9   SS    -12
    7    9   SE      7
    7    9   ES     10
    7    9   EE     -8
    7   10   SS     10
    7   10   SE     11
    7   10   ES     -7
    7   10   EE     -8
    8    9   SS    -10
    8    9   SE      1
    8    9   ES     -9
    8    9   EE    -11
************************************************************************
